LibMLKEM/why3-cvc5/mlkem.adb_1736_22_range_check_1.smt2
;; produced by cvc5.drv ;;
(set-logic ALL)
(set-info :smt-lib-version 2.6)
;;; generated by SMT-LIB2 driver
;;; SMT-LIB2 driver: bit-vectors, common part
;;; SMT-LIB2: integer arithmetic
;; "length"
(define-fun length ((x Int) (y Int)) Int
  (ite (<= x y) (+ (- y x) 1) 0))

;; "pow2"
(declare-fun pow2 (Int) Int)

(declare-const two_power_size_minus_one Int)

;; "two_power_size_minus_one_val"
(assert (= two_power_size_minus_one (pow2 (- 8 1))))

;; "min"
(define-fun min ((x Int) (y Int)) Int
  (ite (<= x y) x y))

;; "max"
(define-fun max ((x Int) (y Int)) Int
  (ite (<= x y) y x))

;; "Min_r"
(assert (forall ((x Int) (y Int)) (=> (<= y x) (= (min x y) y))))

;; "Max_l"
(assert (forall ((x Int) (y Int)) (=> (<= y x) (= (max x y) x))))

;; "Min_comm"
(assert (forall ((x Int) (y Int)) (= (min x y) (min y x))))

;; "Max_comm"
(assert (forall ((x Int) (y Int)) (= (max x y) (max y x))))

;; "Min_assoc"
(assert
  (forall ((x Int) (y Int) (z Int)) (= (min (min x y) z) (min x (min y z)))))

;; "Max_assoc"
(assert
  (forall ((x Int) (y Int) (z Int)) (= (max (max x y) z) (max x (max y z)))))

(declare-sort byte 0)

(declare-sort tinteger_32B 0)

;; "tinteger_32B'int"
(declare-fun tinteger_32Bqtint (tinteger_32B) Int)

;; "tinteger_32B'axiom"
(assert
  (forall ((i tinteger_32B))
    (and
      (<= (- 2147483648) (tinteger_32Bqtint i))
      (<= (tinteger_32Bqtint i) 2147483647))))

;; "in_range"
(define-fun in_range ((x Int)) Bool
  (and (<= (- 2147483648) x) (<= x 2147483647)))

;; "to_rep"
(define-fun to_rep ((x tinteger_32B)) Int
  (tinteger_32Bqtint x))

;; "of_rep"
(declare-fun of_rep (Int) tinteger_32B)

;; "inversion_axiom"
(assert
  (forall ((x tinteger_32B))
    (! (= (of_rep (to_rep x)) x) :pattern ((to_rep x)) )))

;; "range_axiom"
(assert
  (forall ((x tinteger_32B))
    (! (in_range (to_rep x)) :pattern ((to_rep x)) )))

;; "coerce_axiom"
(assert
  (forall ((x Int))
    (! (=> (in_range x) (= (to_rep (of_rep x)) x)) :pattern ((to_rep
                                                               (of_rep x))) )))

;; "in_range"
(define-fun in_range1 ((x Int)) Bool
  (and (<= 0 x) (<= x 2147483647)))

;; "to_rep"
(declare-fun to_rep1 (byte) (_ BitVec 8))

;; "of_rep"
(declare-fun of_rep1 ((_ BitVec 8)) byte)

;; "inversion_axiom"
(assert
  (forall ((x byte)) (! (= (of_rep1 (to_rep1 x)) x) :pattern ((to_rep1 x)) )))

;; "range_axiom"
(assert true)

;; "coerce_axiom"
(assert
  (forall ((x (_ BitVec 8)))
    (! (= (to_rep1 (of_rep1 x)) x) :pattern ((to_rep1 (of_rep1 x))) )))

(declare-sort map1 0)

;; "has_bounds"
(declare-fun has_bounds (map1
  Int
  Int) Bool)

;; "get"
(declare-fun get (map1
  Int) byte)

;; "slide"
(declare-fun slide (map1
  Int
  Int) map1)

;; "slide_eq"
(assert
  (forall ((a map1) (first Int))
    (! (= (slide a first first) a) :pattern ((slide a first first)) )))

;; "slide_def"
(assert
  (forall ((a map1) (old_first Int) (new_first Int))
    (! (and
         (forall ((i Int))
           (! (= (get (slide a old_first new_first) i) (get
                                                         a
                                                         (- i (- new_first old_first)))) :pattern (
           (get
             (slide a old_first new_first)
             i)) ))
         (forall ((new_last Int))
           (! (=>
                (has_bounds a old_first (- new_last (- new_first old_first)))
                (has_bounds (slide a old_first new_first) new_first new_last)) :pattern (
           (has_bounds
             (slide a old_first new_first)
             new_first
             new_last)) ))) :pattern ((slide a old_first new_first)) )))

;; "concat_singleton_right"
(declare-fun concat_singleton_right (map1
  Int
  Int
  byte
  Int) map1)

;; "concat_singleton_right_def"
(assert
  (forall ((a map1) (b byte) (a_first Int) (a_last Int) (new_last Int))
    (! (and
         (=>
           (and (<= a_first a_last) (< a_last new_last))
           (=>
             (has_bounds a a_first a_last)
             (has_bounds
               (concat_singleton_right a a_first a_last b new_last)
               a_first
               new_last)))
         (and
           (=>
             (< a_last (+ a_last 1))
             (= (get
                  (concat_singleton_right a a_first a_last b new_last)
                  (+ a_last 1)) b))
           (forall ((i Int))
             (! (=>
                  (and (<= a_first i) (<= i a_last))
                  (= (get
                       (concat_singleton_right a a_first a_last b new_last)
                       i) (get a i))) :pattern ((get
                                                  (concat_singleton_right
                                                    a
                                                    a_first
                                                    a_last
                                                    b
                                                    new_last)
                                                  i)) :pattern ((get a i)) )))) :pattern (
    (concat_singleton_right
      a
      a_first
      a_last
      b
      new_last)) )))

;; "singleton"
(declare-fun singleton1 (byte
  Int) map1)

;; "singleton_bounds"
(assert
  (forall ((v byte) (i Int))
    (! (and (has_bounds (singleton1 v i) i i) (= (get (singleton1 v i) i) v)) :pattern (
    (singleton1
      v
      i)) )))

(declare-datatypes ((t 0))
  (((tqtmk (rec__first tinteger_32B)(rec__last tinteger_32B)))))

;; "mk"
(declare-fun mk (Int
  Int) t)

;; "mk_def"
(assert
  (forall ((f Int) (l Int))
    (! (=>
         (in_range f)
         (=>
           (in_range l)
           (and
             (= (to_rep (rec__first (mk f l))) f)
             (= (to_rep (rec__last (mk f l))) l)))) :pattern ((mk f l)) )))

(declare-datatypes ((us_t 0))
  (((us_tqtmk (elts map1)(rt t)))))

;; "to_array"
(define-fun to_array ((a us_t)) map1
  (elts a))

;; "of_array"
(define-fun of_array ((a map1) (f Int) (l Int)) us_t
  (us_tqtmk a (mk f l)))

;; "first"
(define-fun first ((a us_t)) Int
  (to_rep (rec__first (rt a))))

;; "last"
(define-fun last ((a us_t)) Int
  (to_rep (rec__last (rt a))))

;; "length"
(define-fun length1 ((a us_t)) Int
  (ite (<= (first a) (last a)) (+ (- (last a) (first a)) 1) 0))

(declare-const two_power_size_minus_one1 Int)

;; "two_power_size_minus_one_val"
(assert (= two_power_size_minus_one1 (pow2 (- 16 1))))

(declare-sort t1 0)

;; "in_range"
(define-fun in_range2 ((x (_ BitVec 16))) Bool
  (and (bvule #x0000 x) (bvule x #x0D00)))

;; "to_rep"
(declare-fun to_rep2 (t1) (_ BitVec 16))

;; "of_rep"
(declare-fun of_rep2 ((_ BitVec 16)) t1)

;; "inversion_axiom"
(assert
  (forall ((x t1)) (! (= (of_rep2 (to_rep2 x)) x) :pattern ((to_rep2 x)) )))

;; "range_axiom"
(assert
  (forall ((x t1)) (! (in_range2 (to_rep2 x)) :pattern ((to_rep2 x)) )))

;; "coerce_axiom"
(assert
  (forall ((x (_ BitVec 16)))
    (! (let ((y (bvurem x #x0D01)))
         (=> (in_range2 y) (= (to_rep2 (of_rep2 x)) y))) :pattern ((to_rep2
                                                                    (of_rep2
                                                                    x))) )))

(declare-sort map2 0)

;; "has_bounds"
(declare-fun has_bounds1 (map2
  Int
  Int) Bool)

;; "get"
(declare-fun get1 (map2
  Int) t1)

(declare-datatypes ((t__init_wrapper 0))
  (((t__init_wrapperqtmk (rec__value t1)(us_attr__init Bool)))))

(declare-sort map3 0)

;; "has_bounds"
(declare-fun has_bounds2 (map3
  Int
  Int) Bool)

;; "get"
(declare-fun get2 (map3
  Int) t__init_wrapper)

;; "__is_initialized"
(define-fun us_is_initialized ((temp___expr_1111 map3)) Bool
  (forall ((temp___1112 Int))
    (=>
      (and (<= 0 temp___1112) (<= temp___1112 255))
      (= (us_attr__init (get2 temp___expr_1111 temp___1112)) true))))

;; "xof_then_samplentt"
(declare-fun xof_then_samplentt (map1) map2)

;; "xof_then_samplentt__function_guard"
(declare-fun xof_then_samplentt__function_guard (map2
  map1) Bool)

(declare-const rho map1)

(declare-sort map4 0)

;; "has_bounds"
(declare-fun has_bounds3 (map4
  Int
  Int) Bool)

;; "get"
(declare-fun get3 (map4
  Int) map3)

;; "set"
(declare-fun set (map4
  Int
  map3) map4)

;; "set_eq"
(assert
  (forall ((a map4) (i Int) (v map3))
    (! (= (get3 (set a i v) i) v) :pattern ((set a i v)) )))

;; "set_neq"
(assert
  (forall ((a map4) (i Int) (v map3))
    (! (forall ((j Int))
         (! (=> (not (= i j)) (= (get3 (set a i v) j) (get3 a j))) :pattern (
         (get3
           a
           j)) :pattern ((get3 (set a i v) j)) )) :pattern ((set a i v)) )))

;; "set_has_bounds"
(assert
  (forall ((a map4) (i Int) (f Int) (l Int) (v map3))
    (! (=>
         (and (<= f i) (<= i l))
         (=> (has_bounds3 a f l) (has_bounds3 (set a i v) f l))) :pattern (
    (has_bounds3
      (set a i v)
      f
      l)) )))

;; "slice"
(declare-fun slice (map4
  Int
  Int) map4)

;; "slice_eq"
(assert
  (forall ((a map4) (f Int) (l Int))
    (! (=> (has_bounds3 a f l) (= (slice a f l) a)) :pattern ((slice a f l)
    (has_bounds3 a f l)) )))

;; "slice_slice"
(assert
  (forall ((a map4) (f1 Int) (l1 Int) (f2 Int) (l2 Int))
    (! (=>
         (and (<= f1 f2) (<= l2 l1))
         (= (slice (slice a f1 l1) f2 l2) (slice a f2 l2))) :pattern (
    (slice
      (slice a f1 l1)
      f2
      l2)) )))

;; "slice_def"
(assert
  (forall ((a map4) (f Int) (l Int))
    (! (forall ((i Int))
         (! (=>
              (and (<= f i) (<= i l))
              (= (get3 (slice a f l) i) (get3 a i))) :pattern ((get3
                                                                 (slice
                                                                   a
                                                                   f
                                                                   l)
                                                                 i)) :pattern (
         (get3
           a
           i)) )) :pattern ((slice a f l)) )))

;; "slice_has_bounds"
(assert
  (forall ((a map4) (f Int) (l Int))
    (! (has_bounds3 (slice a f l) f l) :pattern ((has_bounds3
                                                   (slice a f l)
                                                   f
                                                   l)) )))

(declare-sort map5 0)

;; "has_bounds"
(declare-fun has_bounds4 (map5
  Int
  Int) Bool)

;; "get"
(declare-fun get4 (map5
  Int) map4)

;; "set"
(declare-fun set1 (map5
  Int
  map4) map5)

;; "set_eq"
(assert
  (forall ((a map5) (i Int) (v map4))
    (! (= (get4 (set1 a i v) i) v) :pattern ((set1 a i v)) )))

;; "set_neq"
(assert
  (forall ((a map5) (i Int) (v map4))
    (! (forall ((j Int))
         (! (=> (not (= i j)) (= (get4 (set1 a i v) j) (get4 a j))) :pattern (
         (get4
           a
           j)) :pattern ((get4 (set1 a i v) j)) )) :pattern ((set1 a i v)) )))

;; "set_has_bounds"
(assert
  (forall ((a map5) (i Int) (f Int) (l Int) (v map4))
    (! (=>
         (and (<= f i) (<= i l))
         (=> (has_bounds4 a f l) (has_bounds4 (set1 a i v) f l))) :pattern (
    (has_bounds4
      (set1 a i v)
      f
      l)) )))

;; "slice"
(declare-fun slice1 (map5
  Int
  Int) map5)

;; "slice_eq"
(assert
  (forall ((a map5) (f Int) (l Int))
    (! (=> (has_bounds4 a f l) (= (slice1 a f l) a)) :pattern ((slice1 a f l)
    (has_bounds4 a f l)) )))

;; "slice_slice"
(assert
  (forall ((a map5) (f1 Int) (l1 Int) (f2 Int) (l2 Int))
    (! (=>
         (and (<= f1 f2) (<= l2 l1))
         (= (slice1 (slice1 a f1 l1) f2 l2) (slice1 a f2 l2))) :pattern (
    (slice1
      (slice1 a f1 l1)
      f2
      l2)) )))

;; "slice_def"
(assert
  (forall ((a map5) (f Int) (l Int))
    (! (forall ((i Int))
         (! (=>
              (and (<= f i) (<= i l))
              (= (get4 (slice1 a f l) i) (get4 a i))) :pattern ((get4
                                                                  (slice1
                                                                    a
                                                                    f
                                                                    l)
                                                                  i)) :pattern (
         (get4
           a
           i)) )) :pattern ((slice1 a f l)) )))

;; "slice_has_bounds"
(assert
  (forall ((a map5) (f Int) (l Int))
    (! (has_bounds4 (slice1 a f l) f l) :pattern ((has_bounds4
                                                    (slice1 a f l)
                                                    f
                                                    l)) )))

;; "convert"
(declare-fun convert (map2) map3)

;; "convert__def"
(assert
  (forall ((a map2))
    (let ((b (convert a)))
      (forall ((temp___199 Int))
        (and
          (= (us_attr__init
               (t__init_wrapperqtmk
                 (of_rep2 (to_rep2 (get1 a temp___199)))
                 true)) (us_attr__init (get2 b temp___199)))
          (= (to_rep2
               (rec__value
                 (t__init_wrapperqtmk
                   (of_rep2 (to_rep2 (get1 a temp___199)))
                   true))) (to_rep2 (rec__value (get2 b temp___199)))))))))

;; "__is_initialized"
(define-fun us_is_initialized1 ((temp___expr_1134 map4)) Bool
  (forall ((temp___1135 Int))
    (=>
      (and (<= 0 temp___1135) (<= temp___1135 2))
      (us_is_initialized (get3 temp___expr_1134 temp___1135)))))

;; "dynamic_invariant_r"
(define-fun dynamic_invariant_r ((temp___expr_1158 map5) (temp___is_init_1154 Bool) (temp___skip_constant_1155 Bool) (temp___do_toplevel_1156 Bool) (temp___do_typ_inv_1157 Bool)) Bool
  (and
    (has_bounds4 temp___expr_1158 0 2)
    (forall ((temp___1159 Int))
      (=>
        (and (<= 0 temp___1159) (<= temp___1159 2))
        (and
          (has_bounds3 (get4 temp___expr_1158 temp___1159) 0 2)
          (forall ((temp___1160 Int))
            (=>
              (and (<= 0 temp___1160) (<= temp___1160 2))
              (has_bounds2
                (get3 (get4 temp___expr_1158 temp___1159) temp___1160)
                0
                255))))))))

(declare-sort tk_rangeB 0)

;; "tk_rangeB'int"
(declare-fun tk_rangeBqtint (tk_rangeB) Int)

;; "tk_rangeB'axiom"
(assert
  (forall ((i tk_rangeB))
    (and (<= (- 128) (tk_rangeBqtint i)) (<= (tk_rangeBqtint i) 127))))

;; "in_range"
(define-fun in_range3 ((x Int)) Bool
  (and (<= (- 128) x) (<= x 127)))

;; "to_rep"
(define-fun to_rep3 ((x tk_rangeB)) Int
  (tk_rangeBqtint x))

;; "of_rep"
(declare-fun of_rep3 (Int) tk_rangeB)

;; "inversion_axiom"
(assert
  (forall ((x tk_rangeB))
    (! (= (of_rep3 (to_rep3 x)) x) :pattern ((to_rep3 x)) )))

;; "range_axiom"
(assert
  (forall ((x tk_rangeB))
    (! (in_range3 (to_rep3 x)) :pattern ((to_rep3 x)) )))

;; "coerce_axiom"
(assert
  (forall ((x Int))
    (! (=> (in_range3 x) (= (to_rep3 (of_rep3 x)) x)) :pattern ((to_rep3
                                                                  (of_rep3 x))) )))

(declare-datatypes ((t2 0))
  (((tqtmk1 (rec__first1 tk_rangeB)(rec__last1 tk_rangeB)))))

;; "mk"
(declare-fun mk1 (Int
  Int) t2)

;; "mk_def"
(assert
  (forall ((f Int) (l Int))
    (! (=>
         (in_range3 f)
         (=>
           (in_range3 l)
           (and
             (= (to_rep3 (rec__first1 (mk1 f l))) f)
             (= (to_rep3 (rec__last1 (mk1 f l))) l)))) :pattern ((mk1 f l)) )))

(declare-datatypes ((us_t1 0))
  (((us_tqtmk1 (elts1 map5)(rt1 t2)))))

;; "to_array"
(define-fun to_array1 ((a us_t1)) map5
  (elts1 a))

;; "of_array"
(define-fun of_array1 ((a map5) (f Int) (l Int)) us_t1
  (us_tqtmk1 a (mk1 f l)))

;; "first"
(define-fun first1 ((a us_t1)) Int
  (to_rep3 (rec__first1 (rt1 a))))

;; "last"
(define-fun last1 ((a us_t1)) Int
  (to_rep3 (rec__last1 (rt1 a))))

(declare-datatypes ((t3 0))
  (((tqtmk2 (rec__first2 tk_rangeB)(rec__last2 tk_rangeB)))))

;; "mk"
(declare-fun mk2 (Int
  Int) t3)

;; "mk_def"
(assert
  (forall ((f Int) (l Int))
    (! (=>
         (in_range3 f)
         (=>
           (in_range3 l)
           (and
             (= (to_rep3 (rec__first2 (mk2 f l))) f)
             (= (to_rep3 (rec__last2 (mk2 f l))) l)))) :pattern ((mk2 f l)) )))

(declare-datatypes ((us_t2 0))
  (((us_tqtmk2 (elts2 map4)(rt2 t3)))))

;; "to_array"
(define-fun to_array2 ((a us_t2)) map4
  (elts2 a))

;; "of_array"
(define-fun of_array2 ((a map4) (f Int) (l Int)) us_t2
  (us_tqtmk2 a (mk2 f l)))

;; "first"
(define-fun first2 ((a us_t2)) Int
  (to_rep3 (rec__first2 (rt2 a))))

;; "last"
(define-fun last2 ((a us_t2)) Int
  (to_rep3 (rec__last2 (rt2 a))))

;; Goal "def'vc"
;; File "mlkem.adb", line 1707, characters 0-0
(assert
  (not
  (forall ((a_hat map5))
    (=>
      (has_bounds rho 0 31)
      (=>
        (dynamic_invariant_r a_hat false false true true)
        (forall ((a_hat1 map5))
          (=>
            (exists ((i Int))
              (and
                (= i 0)
                (ite (= (and (ite (<= 0 i) true false) (ite (<= i 2)
                                                         true
                                                         false)) true)
                  (exists ((a_hat2 map5) (j Int))
                    (and
                      (exists ((j1 Int))
                        (and
                          (= j1 0)
                          (ite (= (and (ite (<= 0 j1) true false) (ite (<= j1 2)
                                                                    true
                                                                    false)) true)
                            (exists ((temp___5277 us_t))
                              (and
                                (let ((temp___5276 ((_ int2bv 8) i)))
                                  (let ((o (- (+ 0 (+ (length 0 31) 1)) 1)))
                                    (and
                                      (in_range1 o)
                                      (exists ((o1 byte))
                                        (and
                                          (= (to_rep1 o1) ((_ int2bv 8) j1))
                                          (let ((temp___5275 (of_array
                                                               (concat_singleton_right
                                                                 rho
                                                                 0
                                                                 31
                                                                 o1
                                                                 (+ 2147483647 1))
                                                               0
                                                               o)))
                                            (ite (= (length1 temp___5275) 0)
                                              (exists ((o2 byte))
                                                (and
                                                  (= (to_rep1 o2) temp___5276)
                                                  (= temp___5277 (of_array
                                                                   (singleton1
                                                                    o2
                                                                    0)
                                                                   0
                                                                   0))))
                                              (let ((o2 (- (+ (first
                                                                temp___5275) (+ 
                                                (length
                                                  (first temp___5275)
                                                  (last temp___5275)) 1)) 1)))
                                                (and
                                                  (in_range1 o2)
                                                  (exists ((o3 byte))
                                                    (and
                                                      (= (to_rep1 o3) temp___5276)
                                                      (= temp___5277 
                                                      (of_array
                                                        (concat_singleton_right
                                                          (to_array
                                                            temp___5275)
                                                          (first temp___5275)
                                                          (last temp___5275)
                                                          o3
                                                          (+ 2147483647 1))
                                                        (first temp___5275)
                                                        o2)))))))))))))
                                (let ((temp___5278 (slide
                                                     (to_array temp___5277)
                                                     (first temp___5277)
                                                     0)))
                                  (and
                                    (ite (<= (first temp___5277) (last
                                                                   temp___5277))
                                      (and
                                        (<= 0 33)
                                        (= (- (last temp___5277) (first
                                                                   temp___5277)) (- 33 0)))
                                      (< 33 0))
                                    (let ((temp___5279 (xof_then_samplentt
                                                         temp___5278)))
                                      (and
                                        (and
                                          (xof_then_samplentt__function_guard
                                            temp___5279
                                            temp___5278)
                                          (has_bounds1 temp___5279 0 255))
                                        (exists ((a_hat3 map5))
                                          (and
                                            (= a_hat3 (set1
                                                        a_hat
                                                        i
                                                        (set
                                                          (get4 a_hat i)
                                                          j1
                                                          (convert
                                                            temp___5279))))
                                            (and
                                              (=>
                                                (<= 0 j1)
                                                (and
                                                  (and (<= 0 0) (<= 0 2))
                                                  (and (<= 0 j1) (<= j1 2))))
                                              (let ((temp___5293 (- i 1)))
                                                (and
                                                  (=>
                                                    (<= 0 temp___5293)
                                                    (and
                                                      (and (<= 0 0) (<= 0 2))
                                                      (and
                                                        (<= 0 temp___5293)
                                                        (<= temp___5293 2))))
                                                  (and
                                                    (and
                                                      (let ((temp___5315 
                                                        (let ((temp___5314 (- i 1)))
                                                          (of_array1
                                                            (slice1
                                                              a_hat2
                                                              0
                                                              temp___5314)
                                                            0
                                                            temp___5314))))
                                                        (forall ((temp___5316 Int))
                                                          (=>
                                                            (and
                                                              (<= (first1
                                                                    temp___5315) temp___5316)
                                                              (<= temp___5316 
                                                              (last1
                                                                temp___5315)))
                                                            (us_is_initialized1
                                                              (get4
                                                                (to_array1
                                                                  temp___5315)
                                                                temp___5316)))))
                                                      (let ((temp___5324 
                                                        (of_array2
                                                          (slice
                                                            (get4 a_hat2 i)
                                                            0
                                                            j)
                                                          0
                                                          j)))
                                                        (forall ((temp___5325 Int))
                                                          (=>
                                                            (and
                                                              (<= (first2
                                                                    temp___5324) temp___5325)
                                                              (<= temp___5325 
                                                              (last2
                                                                temp___5324)))
                                                            (us_is_initialized
                                                              (get3
                                                                (to_array2
                                                                  temp___5324)
                                                                temp___5325))))))
                                                    (and
                                                      (= (and (ite (and
                                                                    (dynamic_invariant_r
                                                                    a_hat2
                                                                    false
                                                                    true
                                                                    true
                                                                    true)
                                                                    (forall 
                                                                    ((temp___5287 Int))
                                                                    (=>
                                                                    (and
                                                                    (<= 0 temp___5287)
                                                                    (<= temp___5287 2))
                                                                    (ite 
                                                                    (not
                                                                    (= i temp___5287))
                                                                    (= 
                                                                    (get4
                                                                    a_hat2
                                                                    temp___5287) 
                                                                    (get4
                                                                    a_hat
                                                                    temp___5287))
                                                                    (forall 
                                                                    ((temp___5288 Int))
                                                                    (=>
                                                                    (and
                                                                    (<= 0 temp___5288)
                                                                    (<= temp___5288 2))
                                                                    (=>
                                                                    (or
                                                                    (< 2 temp___5288)
                                                                    (or
                                                                    (< temp___5288 0)
                                                                    (< j temp___5288)))
                                                                    (= 
                                                                    (get3
                                                                    (get4
                                                                    a_hat2
                                                                    temp___5287)
                                                                    temp___5288) 
                                                                    (get3
                                                                    (get4
                                                                    a_hat
                                                                    temp___5287)
                                                                    temp___5288)))))))))
                                                                true
                                                                false) 
                                                      (ite (and
                                                             (<= 0 j)
                                                             (<= j 2))
                                                        true
                                                        false)) true)
                                                      (= j 2))))))))))))))
                            (and (= a_hat2 a_hat) (= j j1)))))
                      (and
                        (=>
                          (<= 0 i)
                          (and
                            (and (<= 0 0) (<= 0 2))
                            (and (<= 0 i) (<= i 2))))
                        (exists ((i1 Int))
                          (and
                            (let ((temp___5351 (of_array1
                                                 (slice1 a_hat1 0 i1)
                                                 0
                                                 i1)))
                              (forall ((temp___5352 Int))
                                (=>
                                  (and
                                    (<= (first1 temp___5351) temp___5352)
                                    (<= temp___5352 (last1 temp___5351)))
                                  (us_is_initialized1
                                    (get4
                                      (to_array1 temp___5351)
                                      temp___5352)))))
                            (and
                              (= (and (ite (and
                                             (dynamic_invariant_r
                                               a_hat1
                                               false
                                               true
                                               true
                                               true)
                                             (forall ((temp___5335 Int))
                                               (=>
                                                 (and
                                                   (<= 0 temp___5335)
                                                   (<= temp___5335 2))
                                                 (=>
                                                   (or
                                                     (< 2 temp___5335)
                                                     (or
                                                       (< temp___5335 0)
                                                       (< i1 temp___5335)))
                                                   (= (get4
                                                        a_hat1
                                                        temp___5335) 
                                                   (get4
                                                     a_hat
                                                     temp___5335))))))
                                        true
                                        false) (ite (and (<= 0 i1) (<= i1 2))
                                                 true
                                                 false)) true)
                              (= i1 2)))))))
                  (= a_hat1 a_hat))))
            (=>
              (<= 0 2)
              (and (and (<= 0 0) (<= 0 2)) (and (<= 0 2) (<= 2 2)))))))))))

(check-sat)
